p cnf 151 657
8 0
15 0
22 0
29 0
36 0
43 0
16 0
23 0
30 0
37 0
44 0
24 0
31 0
38 0
45 0
32 0
39 0
46 0
40 0
47 0
48 0
-8 -16 15 0
-8 -23 22 0
-8 -30 29 0
-8 -37 36 0
-8 -44 43 0
-15 -10 8 0
-15 -24 22 0
-15 -31 29 0
-15 -38 36 0
-15 -45 43 0
-22 -11 8 0
-22 -18 15 0
-22 -32 29 0
-22 -39 36 0
-22 -46 43 0
-29 -12 8 0
-29 -19 15 0
-29 -26 22 0
-29 -40 36 0
-29 -47 43 0
-36 -13 8 0
-36 -20 15 0
-36 -27 22 0
-36 -34 29 0
-36 -48 43 0
-43 -14 8 0
-43 -21 15 0
-43 -28 22 0
-43 -35 29 0
-43 -42 36 0
-2 -15 16 0
-2 -22 23 0
-2 -29 30 0
-2 -36 37 0
-2 -43 44 0
-16 -3 2 0
-16 -24 23 0
-16 -31 30 0
-16 -38 37 0
-16 -45 44 0
-23 -4 2 0
-23 -18 16 0
-23 -32 30 0
-23 -39 37 0
-23 -46 44 0
-30 -5 2 0
-30 -19 16 0
-30 -26 23 0
-30 -40 37 0
-30 -47 44 0
-37 -6 2 0
-37 -20 16 0
-37 -27 23 0
-37 -34 30 0
-37 -48 44 0
-44 -7 2 0
-44 -21 16 0
-44 -28 23 0
-44 -35 30 0
-44 -42 37 0
-3 -8 10 0
-3 -22 24 0
-3 -29 31 0
-3 -36 38 0
-3 -43 45 0
-10 -2 3 0
-10 -23 24 0
-10 -30 31 0
-10 -37 38 0
-10 -44 45 0
-24 -4 3 0
-24 -11 10 0
-24 -32 31 0
-24 -39 38 0
-24 -46 45 0
-31 -5 3 0
-31 -12 10 0
-31 -26 24 0
-31 -40 38 0
-31 -47 45 0
-38 -6 3 0
-38 -13 10 0
-38 -27 24 0
-38 -34 31 0
-38 -48 45 0
-45 -7 3 0
-45 -14 10 0
-45 -28 24 0
-45 -35 31 0
-45 -42 38 0
-4 -8 11 0
-4 -15 18 0
-4 -29 32 0
-4 -36 39 0
-4 -43 46 0
-11 -2 4 0
-11 -16 18 0
-11 -30 32 0
-11 -37 39 0
-11 -44 46 0
-18 -3 4 0
-18 -10 11 0
-18 -31 32 0
-18 -38 39 0
-18 -45 46 0
-32 -5 4 0
-32 -12 11 0
-32 -19 18 0
-32 -40 39 0
-32 -47 46 0
-39 -6 4 0
-39 -13 11 0
-39 -20 18 0
-39 -34 32 0
-39 -48 46 0
-46 -7 4 0
-46 -14 11 0
-46 -21 18 0
-46 -35 32 0
-46 -42 39 0
-5 -8 12 0
-5 -15 19 0
-5 -22 26 0
-5 -36 40 0
-5 -43 47 0
-12 -2 5 0
-12 -16 19 0
-12 -23 26 0
-12 -37 40 0
-12 -44 47 0
-19 -3 5 0
-19 -10 12 0
-19 -24 26 0
-19 -38 40 0
-19 -45 47 0
-26 -4 5 0
-26 -11 12 0
-26 -18 19 0
-26 -39 40 0
-26 -46 47 0
-40 -6 5 0
-40 -13 12 0
-40 -20 19 0
-40 -27 26 0
-40 -48 47 0
-47 -7 5 0
-47 -14 12 0
-47 -21 19 0
-47 -28 26 0
-47 -42 40 0
-6 -8 13 0
-6 -15 20 0
-6 -22 27 0
-6 -29 34 0
-6 -43 48 0
-13 -2 6 0
-13 -16 20 0
-13 -23 27 0
-13 -30 34 0
-13 -44 48 0
-20 -3 6 0
-20 -10 13 0
-20 -24 27 0
-20 -31 34 0
-20 -45 48 0
-27 -4 6 0
-27 -11 13 0
-27 -18 20 0
-27 -32 34 0
-27 -46 48 0
-34 -5 6 0
-34 -12 13 0
-34 -19 20 0
-34 -26 27 0
-34 -47 48 0
-48 -7 6 0
-48 -14 13 0
-48 -21 20 0
-48 -28 27 0
-48 -35 34 0
-7 -8 14 0
-7 -15 21 0
-7 -22 28 0
-7 -29 35 0
-7 -36 42 0
-14 -2 7 0
-14 -16 21 0
-14 -23 28 0
-14 -30 35 0
-14 -37 42 0
-21 -3 7 0
-21 -10 14 0
-21 -24 28 0
-21 -31 35 0
-21 -38 42 0
-28 -4 7 0
-28 -11 14 0
-28 -18 21 0
-28 -32 35 0
-28 -39 42 0
-35 -5 7 0
-35 -12 14 0
-35 -19 21 0
-35 -26 28 0
-35 -40 42 0
-42 -6 7 0
-42 -13 14 0
-42 -20 21 0
-42 -27 28 0
-42 -34 35 0
-57 -65 64 0
-57 -72 71 0
-57 -79 78 0
-57 -86 85 0
-57 -93 92 0
-64 -59 57 0
-64 -73 71 0
-64 -80 78 0
-64 -87 85 0
-64 -94 92 0
-71 -60 57 0
-71 -67 64 0
-71 -81 78 0
-71 -88 85 0
-71 -95 92 0
-78 -61 57 0
-78 -68 64 0
-78 -75 71 0
-78 -89 85 0
-78 -96 92 0
-85 -62 57 0
-85 -69 64 0
-85 -76 71 0
-85 -83 78 0
-85 -97 92 0
-92 -63 57 0
-92 -70 64 0
-92 -77 71 0
-92 -84 78 0
-92 -91 85 0
-51 -64 65 0
-51 -71 72 0
-51 -78 79 0
-51 -85 86 0
-51 -92 93 0
-65 -52 51 0
-65 -73 72 0
-65 -80 79 0
-65 -87 86 0
-65 -94 93 0
-72 -53 51 0
-72 -67 65 0
-72 -81 79 0
-72 -88 86 0
-72 -95 93 0
-79 -54 51 0
-79 -68 65 0
-79 -75 72 0
-79 -89 86 0
-79 -96 93 0
-86 -55 51 0
-86 -69 65 0
-86 -76 72 0
-86 -83 79 0
-86 -97 93 0
-93 -56 51 0
-93 -70 65 0
-93 -77 72 0
-93 -84 79 0
-93 -91 86 0
-52 -57 59 0
-52 -71 73 0
-52 -78 80 0
-52 -85 87 0
-52 -92 94 0
-59 -51 52 0
-59 -72 73 0
-59 -79 80 0
-59 -86 87 0
-59 -93 94 0
-73 -53 52 0
-73 -60 59 0
-73 -81 80 0
-73 -88 87 0
-73 -95 94 0
-80 -54 52 0
-80 -61 59 0
-80 -75 73 0
-80 -89 87 0
-80 -96 94 0
-87 -55 52 0
-87 -62 59 0
-87 -76 73 0
-87 -83 80 0
-87 -97 94 0
-94 -56 52 0
-94 -63 59 0
-94 -77 73 0
-94 -84 80 0
-94 -91 87 0
-53 -57 60 0
-53 -64 67 0
-53 -78 81 0
-53 -85 88 0
-53 -92 95 0
-60 -51 53 0
-60 -65 67 0
-60 -79 81 0
-60 -86 88 0
-60 -93 95 0
-67 -52 53 0
-67 -59 60 0
-67 -80 81 0
-67 -87 88 0
-67 -94 95 0
-81 -54 53 0
-81 -61 60 0
-81 -68 67 0
-81 -89 88 0
-81 -96 95 0
-88 -55 53 0
-88 -62 60 0
-88 -69 67 0
-88 -83 81 0
-88 -97 95 0
-95 -56 53 0
-95 -63 60 0
-95 -70 67 0
-95 -84 81 0
-95 -91 88 0
-54 -57 61 0
-54 -64 68 0
-54 -71 75 0
-54 -85 89 0
-54 -92 96 0
-61 -51 54 0
-61 -65 68 0
-61 -72 75 0
-61 -86 89 0
-61 -93 96 0
-68 -52 54 0
-68 -59 61 0
-68 -73 75 0
-68 -87 89 0
-68 -94 96 0
-75 -53 54 0
-75 -60 61 0
-75 -67 68 0
-75 -88 89 0
-75 -95 96 0
-89 -55 54 0
-89 -62 61 0
-89 -69 68 0
-89 -76 75 0
-89 -97 96 0
-96 -56 54 0
-96 -63 61 0
-96 -70 68 0
-96 -77 75 0
-96 -91 89 0
-55 -57 62 0
-55 -64 69 0
-55 -71 76 0
-55 -78 83 0
-55 -92 97 0
-62 -51 55 0
-62 -65 69 0
-62 -72 76 0
-62 -79 83 0
-62 -93 97 0
-69 -52 55 0
-69 -59 62 0
-69 -73 76 0
-69 -80 83 0
-69 -94 97 0
-76 -53 55 0
-76 -60 62 0
-76 -67 69 0
-76 -81 83 0
-76 -95 97 0
-83 -54 55 0
-83 -61 62 0
-83 -68 69 0
-83 -75 76 0
-83 -96 97 0
-97 -56 55 0
-97 -63 62 0
-97 -70 69 0
-97 -77 76 0
-97 -84 83 0
-56 -57 63 0
-56 -64 70 0
-56 -71 77 0
-56 -78 84 0
-56 -85 91 0
-63 -51 56 0
-63 -65 70 0
-63 -72 77 0
-63 -79 84 0
-63 -86 91 0
-70 -52 56 0
-70 -59 63 0
-70 -73 77 0
-70 -80 84 0
-70 -87 91 0
-77 -53 56 0
-77 -60 63 0
-77 -67 70 0
-77 -81 84 0
-77 -88 91 0
-84 -54 56 0
-84 -61 63 0
-84 -68 70 0
-84 -75 77 0
-84 -89 91 0
-91 -55 56 0
-91 -62 63 0
-91 -69 70 0
-91 -76 77 0
-91 -83 84 0
8 2 0
-8 -2 0
15 3 0
-15 -3 0
22 4 0
-22 -4 0
29 5 0
-29 -5 0
36 6 0
-36 -6 0
43 7 0
-43 -7 0
2 8 0
-2 -8 0
16 10 0
-16 -10 0
23 11 0
-23 -11 0
30 12 0
-30 -12 0
37 13 0
-37 -13 0
44 14 0
-44 -14 0
3 15 0
-3 -15 0
10 16 0
-10 -16 0
24 18 0
-24 -18 0
31 19 0
-31 -19 0
38 20 0
-38 -20 0
45 21 0
-45 -21 0
4 22 0
-4 -22 0
11 23 0
-11 -23 0
18 24 0
-18 -24 0
32 26 0
-32 -26 0
39 27 0
-39 -27 0
46 28 0
-46 -28 0
5 29 0
-5 -29 0
12 30 0
-12 -30 0
19 31 0
-19 -31 0
26 32 0
-26 -32 0
40 34 0
-40 -34 0
47 35 0
-47 -35 0
6 36 0
-6 -36 0
13 37 0
-13 -37 0
20 38 0
-20 -38 0
27 39 0
-27 -39 0
34 40 0
-34 -40 0
48 42 0
-48 -42 0
7 43 0
-7 -43 0
14 44 0
-14 -44 0
21 45 0
-21 -45 0
28 46 0
-28 -46 0
35 47 0
-35 -47 0
42 48 0
-42 -48 0
57 51 0
-57 -51 0
64 52 0
-64 -52 0
71 53 0
-71 -53 0
78 54 0
-78 -54 0
85 55 0
-85 -55 0
92 56 0
-92 -56 0
51 57 0
-51 -57 0
65 59 0
-65 -59 0
72 60 0
-72 -60 0
79 61 0
-79 -61 0
86 62 0
-86 -62 0
93 63 0
-93 -63 0
52 64 0
-52 -64 0
59 65 0
-59 -65 0
73 67 0
-73 -67 0
80 68 0
-80 -68 0
87 69 0
-87 -69 0
94 70 0
-94 -70 0
53 71 0
-53 -71 0
60 72 0
-60 -72 0
67 73 0
-67 -73 0
81 75 0
-81 -75 0
88 76 0
-88 -76 0
95 77 0
-95 -77 0
54 78 0
-54 -78 0
61 79 0
-61 -79 0
68 80 0
-68 -80 0
75 81 0
-75 -81 0
89 83 0
-89 -83 0
96 84 0
-96 -84 0
55 85 0
-55 -85 0
62 86 0
-62 -86 0
69 87 0
-69 -87 0
76 88 0
-76 -88 0
83 89 0
-83 -89 0
97 91 0
-97 -91 0
56 92 0
-56 -92 0
63 93 0
-63 -93 0
70 94 0
-70 -94 0
77 95 0
-77 -95 0
84 96 0
-84 -96 0
91 97 0
-91 -97 0
148 0
149 0
-148 -8 -57 0
-148 8 57 0
-149 -48 -97 0
-149 48 97 0
-8 57 148 0
8 -57 148 0
-15 64 0
15 -64 0
-22 71 0
22 -71 0
-29 78 0
29 -78 0
-36 85 0
36 -85 0
-43 92 0
43 -92 0
-16 65 0
16 -65 0
-23 72 0
23 -72 0
-30 79 0
30 -79 0
-37 86 0
37 -86 0
-44 93 0
44 -93 0
-24 73 0
24 -73 0
-31 80 0
31 -80 0
-38 87 0
38 -87 0
-45 94 0
45 -94 0
-32 81 0
32 -81 0
-39 88 0
39 -88 0
-46 95 0
46 -95 0
-40 89 0
40 -89 0
-47 96 0
47 -96 0
-48 97 149 0
48 -97 149 0